
Log started (V20.1.0.0) Wed Apr 27 00:39:52 2022


Problem 'file.lp' read.
Read time = 0.02 sec. (0.00 ticks)
Version identifier: 20.1.0.0 | 2020-11-10 | 9bedb6d68
Tried aggregator 1 time.
LP Presolve eliminated 5 rows and 9 columns.
All rows and columns eliminated.
Presolve time = 0.01 sec. (0.00 ticks)

Dual simplex - Optimal:  Objective =  4.0003680000e+04
Solution time =    0.01 sec.  Iterations = 0 (0)
Deterministic time = 0.01 ticks  (0.44 ticks/sec)


Variable Name           Solution Value
quantNutrSojaK@1           1999.984000
quantNutrCanaK@6              0.266667
All other variables matching '*' are 0.
